z3_origin/MulliganEconomicsModel0054e.txt
sat
(:elim-unconstrained  2
 :max-memory          18.52
 :memory              18.42
 :nlsat-arith-var     16
 :nlsat-atoms         39
 :nlsat-bool-var      1
 :nlsat-clauses       32
 :nlsat-conflicts     2
 :nlsat-propagations  42
 :nlsat-stages        22
 :num-allocs          75542
 :rlimit-count        7435
 :solve-eqs-elim-vars 7
 :solve-eqs-steps     75
 :time                0.01
 :total-time          0.02)
